;--------------------------------------------------------------------------
; Benchmark created with Zazu
; Benchmark: 		lcm_norm_inv1_3xlen2
; Created:   		2022-01-11 18:12
; Generator of the ideal: 
; 		 -u00*x00 + u*x + v*y - v00*y00
; Testing invariant: u^5*v^3*x^4*y^4 + u^6*v^5*v00*x^7*y^4*y00 - u^6*v^4*v00*x^7*y^2*y00 - u^5*u00*v^3*x^2*x00*y^6 + u^7*v^4*x^8*y^2 + u^6*v^3*x^3*y^6 + u^6*u00*v^5*x^7*x00*y^4 + u^5*u00*v^3*x^4*x00*y^5 - u^6*v^5*v00*x^5*y^5*y00 + u^6*v^2*x^5*y^3 - u^7*v^4*x^10*y + u^7*v^5*x^6*y^5 - u^7*v^5*x^8*y^4 - u^6*v^2*x^7*y^2 + u^5*v^2*v00*x^6*y^2*y00 + u^5*v^4*x^2*y^7 - u^6*u00*v^4*x^7*x00*y^2 - u^6*v^5*x^9*y^2 - u^5*v^4*x^4*y^6 + u^6*v^5*x^7*y^3 - u^5*u00*v^2*x^4*x00*y^3 + u^6*u00*v^4*x^9*x00*y - u^5*v^3*v00*x^2*y^6*y00 + u^5*u00*v^2*x^6*x00*y^2 + u^6*v^4*v00*x^9*y*y00 - u^6*v^3*x^5*y^5 - u^5*v^2*v00*x^4*y^3*y00 + u^5*v^3*v00*x^4*y^5*y00 + u^6*v^6*x^5*y^6 - u^6*u00*v^5*x^5*x00*y^5 - u^6*v^6*x^7*y^5 - u^5*v^3*x^6*y^3
;--------------------------------------------------------------------------

(set-logic NIA)
(set-option :produce-proofs true)

(declare-const u00 Int)
(declare-const v00 Int)
(declare-const x00 Int)
(declare-const y00 Int)

(assert 
	(exists
		((u Int) (v Int) (x Int) (y Int))
		(and
			(= (- (+ (* (- 1) u00 x00) (* u x) (* v y)) (* v00 y00)) 0)

			(or
				(not (= (- (+ (- (+ (- (+ (- (+ (- (+ (- (+ (- (+ (- (+ (- (+ (* u u u u u (+ v u) (+ v u) (+ v u) (- x y) (- x y) (- x y) (- x y) y y y y) (* u u u u u u (+ v u) (+ v u) (+ v u) (+ v u) (+ v u) v00 (- x y) (- x y) (- x y) (- x y) (- x y) (- x y) (- x y) y y y y y00)) (* u u u u u u (+ v u) (+ v u) (+ v u) (+ v u) v00 (- x y) (- x y) (- x y) (- x y) (- x y) (- x y) (- x y) y y y00) (* u u u u u u00 (+ v u) (+ v u) (+ v u) (- x y) (- x y) x00 y y y y y y)) (* u u u u u u u (+ v u) (+ v u) (+ v u) (+ v u) (- x y) (- x y) (- x y) (- x y) (- x y) (- x y) (- x y) (- x y) y y) (* u u u u u u (+ v u) (+ v u) (+ v u) (- x y) (- x y) (- x y) y y y y y y) (* u u u u u u u00 (+ v u) (+ v u) (+ v u) (+ v u) (+ v u) (- x y) (- x y) (- x y) (- x y) (- x y) (- x y) (- x y) x00 y y y y) (* u u u u u u00 (+ v u) (+ v u) (+ v u) (- x y) (- x y) (- x y) (- x y) x00 y y y y y)) (* u u u u u u (+ v u) (+ v u) (+ v u) (+ v u) (+ v u) v00 (- x y) (- x y) (- x y) (- x y) (- x y) y y y y y y00)) (* u u u u u u (+ v u) (+ v u) (- x y) (- x y) (- x y) (- x y) (- x y) y y y)) (* u u u u u u u (+ v u) (+ v u) (+ v u) (+ v u) (- x y) (- x y) (- x y) (- x y) (- x y) (- x y) (- x y) (- x y) (- x y) (- x y) y)) (* u u u u u u u (+ v u) (+ v u) (+ v u) (+ v u) (+ v u) (- x y) (- x y) (- x y) (- x y) (- x y) (- x y) y y y y y)) (* u u u u u u u (+ v u) (+ v u) (+ v u) (+ v u) (+ v u) (- x y) (- x y) (- x y) (- x y) (- x y) (- x y) (- x y) (- x y) y y y y) (* u u u u u u (+ v u) (+ v u) (- x y) (- x y) (- x y) (- x y) (- x y) (- x y) (- x y) y y)) (* u u u u u (+ v u) (+ v u) v00 (- x y) (- x y) (- x y) (- x y) (- x y) (- x y) y y y00) (* u u u u u (+ v u) (+ v u) (+ v u) (+ v u) (- x y) (- x y) y y y y y y y)) (* u u u u u u u00 (+ v u) (+ v u) (+ v u) (+ v u) (- x y) (- x y) (- x y) (- x y) (- x y) (- x y) (- x y) x00 y y) (* u u u u u u (+ v u) (+ v u) (+ v u) (+ v u) (+ v u) (- x y) (- x y) (- x y) (- x y) (- x y) (- x y) (- x y) (- x y) (- x y) y y) (* u u u u u (+ v u) (+ v u) (+ v u) (+ v u) (- x y) (- x y) (- x y) (- x y) y y y y y y)) (* u u u u u u (+ v u) (+ v u) (+ v u) (+ v u) (+ v u) (- x y) (- x y) (- x y) (- x y) (- x y) (- x y) (- x y) y y y)) (* u u u u u u00 (+ v u) (+ v u) (- x y) (- x y) (- x y) (- x y) x00 y y y)) (* u u u u u u u00 (+ v u) (+ v u) (+ v u) (+ v u) (- x y) (- x y) (- x y) (- x y) (- x y) (- x y) (- x y) (- x y) (- x y) x00 y)) (* u u u u u (+ v u) (+ v u) (+ v u) v00 (- x y) (- x y) y y y y y y y00)) (* u u u u u u00 (+ v u) (+ v u) (- x y) (- x y) (- x y) (- x y) (- x y) (- x y) x00 y y) (* u u u u u u (+ v u) (+ v u) (+ v u) (+ v u) v00 (- x y) (- x y) (- x y) (- x y) (- x y) (- x y) (- x y) (- x y) (- x y) y y00)) (* u u u u u u (+ v u) (+ v u) (+ v u) (- x y) (- x y) (- x y) (- x y) (- x y) y y y y y) (* u u u u u (+ v u) (+ v u) v00 (- x y) (- x y) (- x y) (- x y) y y y y00)) (* u u u u u (+ v u) (+ v u) (+ v u) v00 (- x y) (- x y) (- x y) (- x y) y y y y y y00) (* u u u u u u (+ v u) (+ v u) (+ v u) (+ v u) (+ v u) (+ v u) (- x y) (- x y) (- x y) (- x y) (- x y) y y y y y y)) (* u u u u u u u00 (+ v u) (+ v u) (+ v u) (+ v u) (+ v u) (- x y) (- x y) (- x y) (- x y) (- x y) x00 y y y y y) (* u u u u u u (+ v u) (+ v u) (+ v u) (+ v u) (+ v u) (+ v u) (- x y) (- x y) (- x y) (- x y) (- x y) (- x y) (- x y) y y y y y) (* u u u u u (+ v u) (+ v u) (+ v u) (- x y) (- x y) (- x y) (- x y) (- x y) (- x y) y y y)) 0))
				(not (= (- (+ (- (+ (- (+ (- (+ (- (+ (- (+ (- (+ (- (+ (- (+ (* (+ u v) (+ u v) (+ u v) (+ u v) (+ u v) v v v x x x x (- y x) (- y x) (- y x) (- y x)) (* (+ u v) (+ u v) (+ u v) (+ u v) (+ u v) (+ u v) v v v v v v00 x x x x x x x (- y x) (- y x) (- y x) (- y x) y00)) (* (+ u v) (+ u v) (+ u v) (+ u v) (+ u v) (+ u v) v v v v v00 x x x x x x x (- y x) (- y x) y00) (* (+ u v) (+ u v) (+ u v) (+ u v) (+ u v) u00 v v v x x x00 (- y x) (- y x) (- y x) (- y x) (- y x) (- y x))) (* (+ u v) (+ u v) (+ u v) (+ u v) (+ u v) (+ u v) (+ u v) v v v v x x x x x x x x (- y x) (- y x)) (* (+ u v) (+ u v) (+ u v) (+ u v) (+ u v) (+ u v) v v v x x x (- y x) (- y x) (- y x) (- y x) (- y x) (- y x)) (* (+ u v) (+ u v) (+ u v) (+ u v) (+ u v) (+ u v) u00 v v v v v x x x x x x x x00 (- y x) (- y x) (- y x) (- y x)) (* (+ u v) (+ u v) (+ u v) (+ u v) (+ u v) u00 v v v x x x x x00 (- y x) (- y x) (- y x) (- y x) (- y x))) (* (+ u v) (+ u v) (+ u v) (+ u v) (+ u v) (+ u v) v v v v v v00 x x x x x (- y x) (- y x) (- y x) (- y x) (- y x) y00)) (* (+ u v) (+ u v) (+ u v) (+ u v) (+ u v) (+ u v) v v x x x x x (- y x) (- y x) (- y x))) (* (+ u v) (+ u v) (+ u v) (+ u v) (+ u v) (+ u v) (+ u v) v v v v x x x x x x x x x x (- y x))) (* (+ u v) (+ u v) (+ u v) (+ u v) (+ u v) (+ u v) (+ u v) v v v v v x x x x x x (- y x) (- y x) (- y x) (- y x) (- y x))) (* (+ u v) (+ u v) (+ u v) (+ u v) (+ u v) (+ u v) (+ u v) v v v v v x x x x x x x x (- y x) (- y x) (- y x) (- y x)) (* (+ u v) (+ u v) (+ u v) (+ u v) (+ u v) (+ u v) v v x x x x x x x (- y x) (- y x))) (* (+ u v) (+ u v) (+ u v) (+ u v) (+ u v) v v v00 x x x x x x (- y x) (- y x) y00) (* (+ u v) (+ u v) (+ u v) (+ u v) (+ u v) v v v v x x (- y x) (- y x) (- y x) (- y x) (- y x) (- y x) (- y x))) (* (+ u v) (+ u v) (+ u v) (+ u v) (+ u v) (+ u v) u00 v v v v x x x x x x x x00 (- y x) (- y x)) (* (+ u v) (+ u v) (+ u v) (+ u v) (+ u v) (+ u v) v v v v v x x x x x x x x x (- y x) (- y x)) (* (+ u v) (+ u v) (+ u v) (+ u v) (+ u v) v v v v x x x x (- y x) (- y x) (- y x) (- y x) (- y x) (- y x))) (* (+ u v) (+ u v) (+ u v) (+ u v) (+ u v) (+ u v) v v v v v x x x x x x x (- y x) (- y x) (- y x))) (* (+ u v) (+ u v) (+ u v) (+ u v) (+ u v) u00 v v x x x x x00 (- y x) (- y x) (- y x))) (* (+ u v) (+ u v) (+ u v) (+ u v) (+ u v) (+ u v) u00 v v v v x x x x x x x x x x00 (- y x))) (* (+ u v) (+ u v) (+ u v) (+ u v) (+ u v) v v v v00 x x (- y x) (- y x) (- y x) (- y x) (- y x) (- y x) y00)) (* (+ u v) (+ u v) (+ u v) (+ u v) (+ u v) u00 v v x x x x x x x00 (- y x) (- y x)) (* (+ u v) (+ u v) (+ u v) (+ u v) (+ u v) (+ u v) v v v v v00 x x x x x x x x x (- y x) y00)) (* (+ u v) (+ u v) (+ u v) (+ u v) (+ u v) (+ u v) v v v x x x x x (- y x) (- y x) (- y x) (- y x) (- y x)) (* (+ u v) (+ u v) (+ u v) (+ u v) (+ u v) v v v00 x x x x (- y x) (- y x) (- y x) y00)) (* (+ u v) (+ u v) (+ u v) (+ u v) (+ u v) v v v v00 x x x x (- y x) (- y x) (- y x) (- y x) (- y x) y00) (* (+ u v) (+ u v) (+ u v) (+ u v) (+ u v) (+ u v) v v v v v v x x x x x (- y x) (- y x) (- y x) (- y x) (- y x) (- y x))) (* (+ u v) (+ u v) (+ u v) (+ u v) (+ u v) (+ u v) u00 v v v v v x x x x x x00 (- y x) (- y x) (- y x) (- y x) (- y x)) (* (+ u v) (+ u v) (+ u v) (+ u v) (+ u v) (+ u v) v v v v v v x x x x x x x (- y x) (- y x) (- y x) (- y x) (- y x)) (* (+ u v) (+ u v) (+ u v) (+ u v) (+ u v) v v v x x x x x x (- y x) (- y x) (- y x))) 0))
			)
		)
	)
)
(check-sat)
(get-proof)
(exit)
